50
7
5
2
36 30
100 45
130 50
40 130
70 110
135 100
36 30
100 45
130 50
40 130
70 110
135 100
100 108
73 55
4 38
74 59
50 38
36 136
59 70
158 17
89 47
40 17
40 138
51 131
41 130
2 25
62 28
143 47
145 25
59 125
120 35
36 133
66 56
52 110
55 129
10 94
127 94
139 55
28 18
30 132
157 95
154 19
109 48
66 4
31 131
130 110
51 124
54 106
49 108
75 117
5 32
80 33
12 112
126 144
43 111
54 27
114 45
55 131
88 110
88 24
116 103
7 16
